decision_x1=[0,7];
decision_x2=[0,7];
decision_x3=[0,7];
decision_x4=[0,7];
decision_x5=[0,7];
decision_x6=[0,7];
decision_x7=[0,7];
decision_x8=[0,7];
decision_x9=[0,7];
decision_x10=[0,7];
decision_x11=[0,7];
decision_x12=[0,7];
decision_x13=[0,7];
decision_x14=[0,7];
decision_x15=[0,7];
decision_x16=[0,7];
decision_x17=[0,7];
decision_x18=[0,7];
random_y1=[0,7];
random_y2=[0,7];
random_y3=[0,7];
random_y4=[0,7];
random_y5=[0,7];
random_y6=[0,7];
random_y7=[0,7];
random_y8=[0,7];
constraint_x2_x1=[
0,0,3.2|
0,1,2.9|
0,2,1.7|
0,3,7.5|
0,4,5.1|
0,5,7.7|
0,6,3.5|
0,7,3.8|
1,0,3.7|
1,1,5.1|
1,2,2.7|
1,3,6.3|
1,4,4.2|
1,5,0.2|
1,6,0.95|
1,7,5.5|
2,0,6.1|
2,1,3.8|
2,2,8.8|
2,3,2.8|
2,4,6.3|
2,5,8.1|
2,6,8.6|
2,7,6.8|
3,0,5.6|
3,1,0.42|
3,2,9.9|
3,3,8.1|
3,4,6|
3,5,3.5|
3,6,5.7|
3,7,3|
4,0,3.2|
4,1,9.1|
4,2,9|
4,3,9|
4,4,8.7|
4,5,5.1|
4,6,5.5|
4,7,3.1|
5,0,1.7|
5,1,1|
5,2,6.4|
5,3,5|
5,4,6.7|
5,5,0.46|
5,6,3.8|
5,7,2.9|
6,0,9.9|
6,1,1.5|
6,2,9.1|
6,3,1.2|
6,4,3.8|
6,5,5.7|
6,6,4.7|
6,7,2.1|
7,0,0.32|
7,1,7.4|
7,2,8.8|
7,3,9.5|
7,4,6.5|
7,5,7.7|
7,6,3.9|
7,7,4.1|
];
constraint_x3_x2=[
0,0,4.7|
0,1,1.2|
0,2,6.1|
0,3,4.8|
0,4,6.8|
0,5,4.9|
0,6,7.3|
0,7,1.8|
1,0,6.8|
1,1,8.9|
1,2,1.8|
1,3,6.3|
1,4,2|
1,5,4.1|
1,6,1.9|
1,7,9|
2,0,0.058|
2,1,0.54|
2,2,9.2|
2,3,1.1|
2,4,1.5|
2,5,6.2|
2,6,9.9|
2,7,8.1|
3,0,6.3|
3,1,7.2|
3,2,6.5|
3,3,3.4|
3,4,3.7|
3,5,1.6|
3,6,6|
3,7,6.4|
4,0,0.0036|
4,1,1.6|
4,2,1.1|
4,3,9.4|
4,4,3.5|
4,5,3.9|
4,6,1.3|
4,7,8.5|
5,0,8.4|
5,1,2.1|
5,2,0.18|
5,3,0.54|
5,4,1.3|
5,5,5.2|
5,6,8.6|
5,7,6|
6,0,2.7|
6,1,2.4|
6,2,1.4|
6,3,7.9|
6,4,1.9|
6,5,3|
6,6,4|
6,7,6.3|
7,0,3.5|
7,1,0.29|
7,2,5.6|
7,3,8.5|
7,4,8.4|
7,5,6.6|
7,6,2.9|
7,7,9|
];
constraint_x4_x3=[
0,0,4.5|
0,1,6.9|
0,2,8.7|
0,3,0.23|
0,4,4.9|
0,5,0.72|
0,6,6.6|
0,7,7.2|
1,0,3.1|
1,1,9|
1,2,6.6|
1,3,2.6|
1,4,6.7|
1,5,1.8|
1,6,7.1|
1,7,4.3|
2,0,0.19|
2,1,9.7|
2,2,4.9|
2,3,9.2|
2,4,4.3|
2,5,7|
2,6,7.7|
2,7,9.2|
3,0,0.46|
3,1,4.4|
3,2,8.3|
3,3,4.9|
3,4,8.8|
3,5,7|
3,6,6.8|
3,7,8.9|
4,0,7.2|
4,1,8|
4,2,0.66|
4,3,0.34|
4,4,1.8|
4,5,2.3|
4,6,3|
4,7,6.7|
5,0,4.8|
5,1,4.1|
5,2,0.98|
5,3,0.41|
5,4,1.9|
5,5,1.3|
5,6,2.1|
5,7,2.1|
6,0,6.7|
6,1,3.7|
6,2,2.8|
6,3,9.3|
6,4,2.8|
6,5,8.8|
6,6,6.1|
6,7,0.61|
7,0,3.5|
7,1,5.8|
7,2,2.2|
7,3,3|
7,4,8.3|
7,5,3.6|
7,6,2.2|
7,7,0.97|
];
constraint_x5_x1=[
0,0,4.9|
0,1,2.5|
0,2,3.2|
0,3,4.1|
0,4,7|
0,5,7.7|
0,6,3.3|
0,7,7.1|
1,0,9.8|
1,1,2.4|
1,2,9.4|
1,3,4.5|
1,4,1.7|
1,5,9|
1,6,8.6|
1,7,2.9|
2,0,2.5|
2,1,8.9|
2,2,7.6|
2,3,2.6|
2,4,1.2|
2,5,7.9|
2,6,0.36|
2,7,2.1|
3,0,5.7|
3,1,5.5|
3,2,6.8|
3,3,5.4|
3,4,6.8|
3,5,3.1|
3,6,8.7|
3,7,0.4|
4,0,5.3|
4,1,9.7|
4,2,0.62|
4,3,7.6|
4,4,0.31|
4,5,6.7|
4,6,6.5|
4,7,0.11|
5,0,2.1|
5,1,2.2|
5,2,3.6|
5,3,6.9|
5,4,4.6|
5,5,7.4|
5,6,8.5|
5,7,0.52|
6,0,6|
6,1,7.3|
6,2,3.3|
6,3,8.4|
6,4,2.9|
6,5,4.2|
6,6,8.7|
6,7,5.7|
7,0,1.6|
7,1,0.29|
7,2,1.2|
7,3,9.9|
7,4,6.2|
7,5,5|
7,6,5.9|
7,7,9.1|
];
constraint_x6_x2=[
0,0,5.6|
0,1,5.9|
0,2,8.5|
0,3,5.9|
0,4,1.7|
0,5,1.4|
0,6,1.9|
0,7,5|
1,0,3.3|
1,1,8.6|
1,2,9.2|
1,3,7.3|
1,4,2.9|
1,5,4|
1,6,6.2|
1,7,4.6|
2,0,6.3|
2,1,3.9|
2,2,10|
2,3,7.1|
2,4,9.3|
2,5,5|
2,6,10|
2,7,4|
3,0,3.9|
3,1,0.66|
3,2,2|
3,3,2.2|
3,4,4.3|
3,5,9.7|
3,6,4.6|
3,7,1.4|
4,0,2.5|
4,1,4.3|
4,2,4.8|
4,3,6.8|
4,4,8.4|
4,5,7.6|
4,6,7|
4,7,9|
5,0,4.5|
5,1,0.026|
5,2,6.8|
5,3,7.4|
5,4,7.5|
5,5,1.9|
5,6,1.4|
5,7,3.2|
6,0,0.72|
6,1,9.4|
6,2,9.7|
6,3,0.8|
6,4,7.7|
6,5,6.2|
6,6,1.5|
6,7,3.5|
7,0,1.4|
7,1,2|
7,2,2.5|
7,3,3|
7,4,9.3|
7,5,2.3|
7,6,1.4|
7,7,4.3|
];
constraint_x7_x3=[
0,0,7.1|
0,1,5.6|
0,2,6.1|
0,3,5.7|
0,4,5.9|
0,5,6.6|
0,6,1.6|
0,7,0.28|
1,0,5.1|
1,1,2.5|
1,2,9.9|
1,3,9.8|
1,4,4.4|
1,5,4.2|
1,6,1.3|
1,7,2.9|
2,0,3.8|
2,1,4.9|
2,2,9.5|
2,3,5.3|
2,4,10|
2,5,1.5|
2,6,9.7|
2,7,5.8|
3,0,9.8|
3,1,1.9|
3,2,8.6|
3,3,3.8|
3,4,4.9|
3,5,3.6|
3,6,8.2|
3,7,4.4|
4,0,9.9|
4,1,9.3|
4,2,5.4|
4,3,4.6|
4,4,6.5|
4,5,3.9|
4,6,4.8|
4,7,6.3|
5,0,4.1|
5,1,4.2|
5,2,9.3|
5,3,0.18|
5,4,3|
5,5,9.3|
5,6,6|
5,7,3.5|
6,0,5.1|
6,1,6.2|
6,2,6.4|
6,3,9.7|
6,4,4.9|
6,5,1.3|
6,6,7.7|
6,7,8.3|
7,0,0.22|
7,1,7.2|
7,2,6.3|
7,3,1.8|
7,4,1.9|
7,5,0.9|
7,6,2.5|
7,7,5|
];
constraint_x8_x4=[
0,0,7.3|
0,1,9.9|
0,2,2.1|
0,3,6.7|
0,4,6.6|
0,5,6.4|
0,6,9.3|
0,7,5.7|
1,0,5.3|
1,1,8.5|
1,2,5.1|
1,3,7.2|
1,4,7.4|
1,5,5.5|
1,6,2.6|
1,7,6.7|
2,0,0.41|
2,1,5.8|
2,2,5.3|
2,3,8.9|
2,4,0.068|
2,5,2.6|
2,6,3.1|
2,7,3.8|
3,0,5.5|
3,1,8.7|
3,2,4|
3,3,1.8|
3,4,9.4|
3,5,4.9|
3,6,5.1|
3,7,5.7|
4,0,7.7|
4,1,7.8|
4,2,2.1|
4,3,1.4|
4,4,2|
4,5,8.2|
4,6,7.7|
4,7,4.7|
5,0,1.3|
5,1,3.6|
5,2,2.3|
5,3,2.3|
5,4,6.4|
5,5,0.18|
5,6,0.044|
5,7,3.5|
6,0,3.1|
6,1,1.3|
6,2,2.2|
6,3,2.5|
6,4,9.2|
6,5,9.2|
6,6,5.5|
6,7,9.3|
7,0,4|
7,1,7.1|
7,2,4.1|
7,3,1.4|
7,4,9.4|
7,5,9.9|
7,6,9.4|
7,7,9.5|
];
constraint_x9_x5=[
0,0,0.55|
0,1,7.8|
0,2,7.3|
0,3,7.3|
0,4,2.5|
0,5,9.6|
0,6,3.3|
0,7,1.9|
1,0,1.1|
1,1,2.3|
1,2,9.5|
1,3,3.7|
1,4,1.9|
1,5,2.6|
1,6,2.2|
1,7,4|
2,0,9|
2,1,1.9|
2,2,7.6|
2,3,2.2|
2,4,4|
2,5,8.2|
2,6,6|
2,7,5.7|
3,0,8.7|
3,1,7.5|
3,2,0.37|
3,3,6.4|
3,4,9.6|
3,5,6.5|
3,6,9.3|
3,7,0.36|
4,0,8.1|
4,1,2.1|
4,2,9|
4,3,4.8|
4,4,9.6|
4,5,2.9|
4,6,9|
4,7,2.9|
5,0,4.3|
5,1,7.7|
5,2,0.41|
5,3,0.85|
5,4,8.4|
5,5,3.9|
5,6,0.94|
5,7,3.2|
6,0,9.9|
6,1,7.9|
6,2,3.7|
6,3,1|
6,4,0.77|
6,5,9.3|
6,6,3.7|
6,7,4.3|
7,0,5.6|
7,1,7.2|
7,2,3.6|
7,3,5.9|
7,4,8.6|
7,5,3.3|
7,6,7|
7,7,5.8|
];
constraint_x10_x6=[
0,0,7.5|
0,1,2.6|
0,2,1.9|
0,3,1.8|
0,4,1.2|
0,5,9.3|
0,6,6|
0,7,0.14|
1,0,2.5|
1,1,6|
1,2,4.1|
1,3,0.19|
1,4,2.7|
1,5,1.1|
1,6,6.2|
1,7,4.4|
2,0,1.7|
2,1,4.5|
2,2,7.6|
2,3,9.1|
2,4,1.7|
2,5,9.9|
2,6,0.39|
2,7,3.7|
3,0,0.27|
3,1,2|
3,2,9.1|
3,3,6.9|
3,4,4.8|
3,5,4.7|
3,6,0.94|
3,7,6.6|
4,0,8.9|
4,1,9|
4,2,8.3|
4,3,8.3|
4,4,7.9|
4,5,0.65|
4,6,0.71|
4,7,5.7|
5,0,1.8|
5,1,0.49|
5,2,3.2|
5,3,8.7|
5,4,3.5|
5,5,8.8|
5,6,9.5|
5,7,6.3|
6,0,9.1|
6,1,9.5|
6,2,1|
6,3,4.2|
6,4,2.6|
6,5,3.8|
6,6,9.5|
6,7,7.5|
7,0,4.1|
7,1,1.2|
7,2,7|
7,3,2.6|
7,4,4|
7,5,8.1|
7,6,2.5|
7,7,8.6|
];
constraint_x11_x7=[
0,0,4.1|
0,1,9.2|
0,2,4.2|
0,3,6.1|
0,4,9.9|
0,5,6.4|
0,6,8.3|
0,7,4.6|
1,0,7.3|
1,1,2.2|
1,2,0.27|
1,3,8|
1,4,6.7|
1,5,1.8|
1,6,2.2|
1,7,8.8|
2,0,4.3|
2,1,5.7|
2,2,7.7|
2,3,2|
2,4,0.63|
2,5,4|
2,6,1|
2,7,3.3|
3,0,6.2|
3,1,0.58|
3,2,1.7|
3,3,9.9|
3,4,6.7|
3,5,1.9|
3,6,9|
3,7,2.6|
4,0,5|
4,1,4.3|
4,2,6.1|
4,3,0.0072|
4,4,1.5|
4,5,9.1|
4,6,4.1|
4,7,9.1|
5,0,2.5|
5,1,5.9|
5,2,3.2|
5,3,9.8|
5,4,2.5|
5,5,0.35|
5,6,8.3|
5,7,4.9|
6,0,4|
6,1,3|
6,2,2.2|
6,3,8.6|
6,4,7|
6,5,9.3|
6,6,3.9|
6,7,0.18|
7,0,5.1|
7,1,9.3|
7,2,5.2|
7,3,2.9|
7,4,5.2|
7,5,2.3|
7,6,2.5|
7,7,1.4|
];
constraint_x12_x8=[
0,0,5.6|
0,1,2.9|
0,2,2.8|
0,3,8.8|
0,4,7.1|
0,5,8.2|
0,6,5.3|
0,7,0.89|
1,0,5.8|
1,1,5.9|
1,2,8.7|
1,3,7.3|
1,4,3|
1,5,4|
1,6,1.6|
1,7,3.5|
2,0,9.6|
2,1,4.6|
2,2,9.7|
2,3,7.4|
2,4,9.5|
2,5,7.3|
2,6,1.8|
2,7,7.9|
3,0,2.1|
3,1,4.8|
3,2,1|
3,3,1.2|
3,4,6.8|
3,5,1|
3,6,5.6|
3,7,8.7|
4,0,8|
4,1,6.1|
4,2,7.2|
4,3,2.5|
4,4,5|
4,5,5.3|
4,6,6.8|
4,7,4|
5,0,6|
5,1,7.8|
5,2,4.8|
5,3,8.9|
5,4,2.9|
5,5,6.8|
5,6,7.8|
5,7,0.31|
6,0,4.3|
6,1,4.5|
6,2,0.88|
6,3,7.6|
6,4,2.7|
6,5,8.7|
6,6,0.86|
6,7,2.4|
7,0,4.5|
7,1,3|
7,2,1.9|
7,3,1.7|
7,4,6.1|
7,5,0.61|
7,6,4.9|
7,7,0.63|
];
constraint_x13_x9=[
0,0,4.9|
0,1,7.6|
0,2,5.2|
0,3,4.6|
0,4,4.8|
0,5,10|
0,6,2.7|
0,7,8.1|
1,0,2.6|
1,1,7|
1,2,0.91|
1,3,8.8|
1,4,1.6|
1,5,8.9|
1,6,9.3|
1,7,5|
2,0,1.1|
2,1,5.6|
2,2,7.9|
2,3,8.2|
2,4,3.5|
2,5,0.48|
2,6,9.8|
2,7,8.4|
3,0,5.9|
3,1,8.3|
3,2,3|
3,3,4.5|
3,4,0.89|
3,5,9.8|
3,6,9.7|
3,7,8.4|
4,0,0.87|
4,1,0.35|
4,2,9.3|
4,3,1.4|
4,4,7.7|
4,5,0.45|
4,6,2.3|
4,7,9.7|
5,0,8.7|
5,1,0.6|
5,2,2|
5,3,1.3|
5,4,4.3|
5,5,3.2|
5,6,6.9|
5,7,6.5|
6,0,2.5|
6,1,8.8|
6,2,9.3|
6,3,9.7|
6,4,8|
6,5,0.91|
6,6,7.5|
6,7,6|
7,0,0.54|
7,1,8.6|
7,2,7.5|
7,3,4.5|
7,4,6.9|
7,5,2.1|
7,6,3.2|
7,7,4.6|
];
constraint_x14_x10=[
0,0,9.7|
0,1,0.46|
0,2,0.31|
0,3,2.6|
0,4,0.52|
0,5,8.8|
0,6,2.7|
0,7,0.38|
1,0,4.5|
1,1,0.28|
1,2,2.8|
1,3,6.1|
1,4,1.5|
1,5,7.1|
1,6,5.3|
1,7,4.7|
2,0,9.5|
2,1,3.9|
2,2,2.1|
2,3,0.05|
2,4,9.9|
2,5,4.1|
2,6,6.1|
2,7,2.4|
3,0,8.9|
3,1,9.9|
3,2,7.1|
3,3,1.2|
3,4,0.38|
3,5,9.5|
3,6,7.1|
3,7,8|
4,0,3.2|
4,1,9.4|
4,2,0.24|
4,3,4.4|
4,4,4.7|
4,5,8.4|
4,6,2.3|
4,7,0.51|
5,0,0.34|
5,1,5.8|
5,2,0.32|
5,3,8.6|
5,4,4.2|
5,5,6.3|
5,6,3.3|
5,7,0.15|
6,0,5.4|
6,1,6.2|
6,2,4.2|
6,3,7.4|
6,4,9.3|
6,5,0.8|
6,6,5.8|
6,7,9.4|
7,0,8.7|
7,1,2.4|
7,2,3.3|
7,3,3.3|
7,4,8.2|
7,5,1.4|
7,6,10|
7,7,2.1|
];
constraint_x15_x11=[
0,0,9.9|
0,1,0.92|
0,2,1|
0,3,4.4|
0,4,8.1|
0,5,4.6|
0,6,5.4|
0,7,7.4|
1,0,4.4|
1,1,7.6|
1,2,9.6|
1,3,8.2|
1,4,0.49|
1,5,3.2|
1,6,9.6|
1,7,2.4|
2,0,2.4|
2,1,6.4|
2,2,9|
2,3,3.3|
2,4,8|
2,5,8|
2,6,3.1|
2,7,0.8|
3,0,5.7|
3,1,7.4|
3,2,0.4|
3,3,2.6|
3,4,5.5|
3,5,3.7|
3,6,9.2|
3,7,2.3|
4,0,9.6|
4,1,2.3|
4,2,3.6|
4,3,0.36|
4,4,9.7|
4,5,7.7|
4,6,3.8|
4,7,4.8|
5,0,3.9|
5,1,0.63|
5,2,0.91|
5,3,9.8|
5,4,5.1|
5,5,2.2|
5,6,8.7|
5,7,6|
6,0,0.013|
6,1,2.9|
6,2,2|
6,3,4.8|
6,4,7.1|
6,5,4|
6,6,5.6|
6,7,2.4|
7,0,8.7|
7,1,8|
7,2,0.99|
7,3,6.4|
7,4,0.49|
7,5,6.5|
7,6,8.8|
7,7,7.4|
];
constraint_x16_x12=[
0,0,2.6|
0,1,9.7|
0,2,4.1|
0,3,3.3|
0,4,6.8|
0,5,6.6|
0,6,1.4|
0,7,7.7|
1,0,1.2|
1,1,2.3|
1,2,6.4|
1,3,2|
1,4,8.9|
1,5,0.41|
1,6,3.2|
1,7,5.2|
2,0,0.97|
2,1,7.9|
2,2,2.6|
2,3,4.4|
2,4,3.3|
2,5,1.9|
2,6,7.1|
2,7,3.7|
3,0,6.9|
3,1,7.1|
3,2,2.5|
3,3,1.2|
3,4,9.2|
3,5,6.6|
3,6,0.16|
3,7,2.7|
4,0,7|
4,1,1.1|
4,2,7.8|
4,3,3.4|
4,4,5.1|
4,5,7.1|
4,6,2.4|
4,7,4.6|
5,0,9.6|
5,1,2.1|
5,2,6.1|
5,3,5.1|
5,4,2.7|
5,5,1.9|
5,6,9.9|
5,7,4.9|
6,0,4.6|
6,1,0.27|
6,2,9.5|
6,3,7|
6,4,4.1|
6,5,6.9|
6,6,9.7|
6,7,2.1|
7,0,9.7|
7,1,2.9|
7,2,9.5|
7,3,0.1|
7,4,7.1|
7,5,4.7|
7,6,3.6|
7,7,4.7|
];
constraint_x17_x13=[
0,0,9.7|
0,1,6.4|
0,2,1.3|
0,3,0.15|
0,4,7.7|
0,5,2.5|
0,6,6.9|
0,7,8.6|
1,0,3.2|
1,1,4.2|
1,2,1.1|
1,3,5.5|
1,4,7.4|
1,5,5.4|
1,6,6.5|
1,7,4.8|
2,0,3.7|
2,1,7.3|
2,2,4.3|
2,3,6.7|
2,4,7.5|
2,5,0.79|
2,6,5.7|
2,7,1.9|
3,0,5.4|
3,1,5.5|
3,2,8.8|
3,3,9|
3,4,6|
3,5,0.27|
3,6,0.68|
3,7,0.066|
4,0,1.6|
4,1,2|
4,2,7.2|
4,3,6.9|
4,4,10|
4,5,3.7|
4,6,8.4|
4,7,9.9|
5,0,1|
5,1,9|
5,2,5|
5,3,9.6|
5,4,7.9|
5,5,1.3|
5,6,5|
5,7,1.4|
6,0,7.9|
6,1,8.3|
6,2,2.4|
6,3,1.6|
6,4,2.5|
6,5,4.3|
6,6,4.6|
6,7,2.4|
7,0,8.3|
7,1,3.6|
7,2,5.9|
7,3,0.21|
7,4,1.6|
7,5,6.5|
7,6,7.7|
7,7,2.2|
];
constraint_x18_x14=[
0,0,1.2|
0,1,8.8|
0,2,1.2|
0,3,9.8|
0,4,8.7|
0,5,8.8|
0,6,6.4|
0,7,3.6|
1,0,8.8|
1,1,9.7|
1,2,0.56|
1,3,1.5|
1,4,6|
1,5,4.2|
1,6,9|
1,7,9.2|
2,0,9.1|
2,1,9.2|
2,2,0.99|
2,3,4.5|
2,4,8.6|
2,5,8.2|
2,6,1.3|
2,7,5.6|
3,0,4.9|
3,1,0.18|
3,2,7.6|
3,3,5.1|
3,4,0.47|
3,5,0.72|
3,6,3.2|
3,7,8.9|
4,0,3.6|
4,1,4.1|
4,2,7.1|
4,3,2.6|
4,4,1|
4,5,3.1|
4,6,6.3|
4,7,6.5|
5,0,3.6|
5,1,6.8|
5,2,8.8|
5,3,5.5|
5,4,5.3|
5,5,4.1|
5,6,4.7|
5,7,7.1|
6,0,3.3|
6,1,4.5|
6,2,4.6|
6,3,6.5|
6,4,6.8|
6,5,8.2|
6,6,2.6|
6,7,6.7|
7,0,3.2|
7,1,9.3|
7,2,5|
7,3,10|
7,4,8.4|
7,5,3.3|
7,6,5|
7,7,3.5|
];
constraint_x1_y1=[
0,0,5.5|
0,1,2.4|
0,2,4.3|
0,3,0.84|
0,4,2|
0,5,5.2|
0,6,7.9|
0,7,4.6|
1,0,0.66|
1,1,4.5|
1,2,6.7|
1,3,2.8|
1,4,3.1|
1,5,3.2|
1,6,3.7|
1,7,9.5|
2,0,7.3|
2,1,9.2|
2,2,7.1|
2,3,8|
2,4,4.6|
2,5,6.5|
2,6,7.5|
2,7,6.1|
3,0,9.6|
3,1,5.9|
3,2,4.7|
3,3,4.2|
3,4,2.6|
3,5,9.8|
3,6,3.3|
3,7,0.95|
4,0,5|
4,1,2.3|
4,2,6.8|
4,3,3.7|
4,4,5.2|
4,5,1.6|
4,6,4.5|
4,7,4.4|
5,0,7.5|
5,1,1.1|
5,2,5.5|
5,3,8|
5,4,0.17|
5,5,5.7|
5,6,1.3|
5,7,3.2|
6,0,6|
6,1,2|
6,2,6.6|
6,3,9.9|
6,4,0.58|
6,5,6.5|
6,6,0.56|
6,7,6.6|
7,0,1.2|
7,1,0.19|
7,2,1.5|
7,3,5.1|
7,4,7.7|
7,5,3.1|
7,6,4|
7,7,6.3|
];
constraint_x2_y2=[
0,0,3|
0,1,8.1|
0,2,4.5|
0,3,1.8|
0,4,7.9|
0,5,4.7|
0,6,1.7|
0,7,1.1|
1,0,3.2|
1,1,6.1|
1,2,9.3|
1,3,1.7|
1,4,9.3|
1,5,2.5|
1,6,3.8|
1,7,0.63|
2,0,0.51|
2,1,8.7|
2,2,8.1|
2,3,8.6|
2,4,9.4|
2,5,3.1|
2,6,1.3|
2,7,6.5|
3,0,6.9|
3,1,2.1|
3,2,4.6|
3,3,3.8|
3,4,2.6|
3,5,4.6|
3,6,6.7|
3,7,4|
4,0,6.8|
4,1,3.1|
4,2,1|
4,3,2.9|
4,4,9.6|
4,5,3.8|
4,6,3.1|
4,7,3.6|
5,0,2.4|
5,1,8.8|
5,2,8|
5,3,2.2|
5,4,9.3|
5,5,9.3|
5,6,3.9|
5,7,7.6|
6,0,3|
6,1,4|
6,2,5|
6,3,8|
6,4,4.8|
6,5,2.1|
6,6,0.68|
6,7,0.29|
7,0,1.9|
7,1,6.5|
7,2,5.4|
7,3,1.3|
7,4,5.4|
7,5,0.84|
7,6,5.2|
7,7,6.5|
];
constraint_x3_y3=[
0,0,1.3|
0,1,9.6|
0,2,3|
0,3,9.2|
0,4,3.4|
0,5,7.4|
0,6,0.26|
0,7,0.74|
1,0,8.6|
1,1,4.2|
1,2,9.5|
1,3,0.93|
1,4,0.75|
1,5,6.8|
1,6,7.1|
1,7,0.4|
2,0,5.6|
2,1,9.6|
2,2,2.3|
2,3,1.9|
2,4,5.6|
2,5,2.1|
2,6,7|
2,7,5.6|
3,0,5.7|
3,1,9.5|
3,2,6.5|
3,3,4.3|
3,4,1.3|
3,5,1.5|
3,6,4.9|
3,7,5.8|
4,0,0.74|
4,1,3.6|
4,2,7|
4,3,0.071|
4,4,5.9|
4,5,3|
4,6,7.6|
4,7,1.2|
5,0,5.5|
5,1,9.4|
5,2,7.1|
5,3,7.5|
5,4,5.5|
5,5,1.3|
5,6,8.9|
5,7,2.4|
6,0,5.1|
6,1,5.3|
6,2,2.3|
6,3,0.59|
6,4,6.1|
6,5,9.7|
6,6,2.9|
6,7,8.8|
7,0,7.7|
7,1,0.2|
7,2,5.9|
7,3,9.9|
7,4,1.6|
7,5,2.2|
7,6,0.59|
7,7,1.5|
];
constraint_x4_y4=[
0,0,1.3|
0,1,3.5|
0,2,5.7|
0,3,5.4|
0,4,3.2|
0,5,3.5|
0,6,7.4|
0,7,8.2|
1,0,5.7|
1,1,2.2|
1,2,0.29|
1,3,9.8|
1,4,0.51|
1,5,9.1|
1,6,7.8|
1,7,0.81|
2,0,5.5|
2,1,8.6|
2,2,4.5|
2,3,1.1|
2,4,5|
2,5,8.2|
2,6,2.8|
2,7,8.8|
3,0,8.8|
3,1,1|
3,2,8.7|
3,3,4.9|
3,4,2.5|
3,5,2.9|
3,6,3.8|
3,7,0.16|
4,0,4|
4,1,8.2|
4,2,1.7|
4,3,2.5|
4,4,6|
4,5,3.2|
4,6,6.6|
4,7,7.9|
5,0,7.6|
5,1,4.9|
5,2,8.5|
5,3,2.5|
5,4,5.9|
5,5,5.5|
5,6,8.2|
5,7,9.6|
6,0,5.9|
6,1,4.2|
6,2,8.9|
6,3,7.3|
6,4,8.5|
6,5,3.3|
6,6,0.14|
6,7,3.7|
7,0,0.041|
7,1,8.6|
7,2,1.1|
7,3,5.4|
7,4,6.7|
7,5,2|
7,6,7.1|
7,7,0.91|
];
constraint_x5_y5=[
0,0,7.3|
0,1,0.37|
0,2,6.6|
0,3,4.1|
0,4,3.1|
0,5,4.9|
0,6,0.81|
0,7,6.6|
1,0,0.0042|
1,1,4.3|
1,2,0.18|
1,3,2.9|
1,4,5|
1,5,9.4|
1,6,3.5|
1,7,6.9|
2,0,6.3|
2,1,5.9|
2,2,9.4|
2,3,1.2|
2,4,6.2|
2,5,3.7|
2,6,2.1|
2,7,4.9|
3,0,2.9|
3,1,4.6|
3,2,4.5|
3,3,3.6|
3,4,4.5|
3,5,0.33|
3,6,3.8|
3,7,6.5|
4,0,6.6|
4,1,0.76|
4,2,1.4|
4,3,1.1|
4,4,2.8|
4,5,0.47|
4,6,0.91|
4,7,5.6|
5,0,7.6|
5,1,4.9|
5,2,7.5|
5,3,6.1|
5,4,1.1|
5,5,8.7|
5,6,0.091|
5,7,3.9|
6,0,2.9|
6,1,4.1|
6,2,4.6|
6,3,7.5|
6,4,3.8|
6,5,8.5|
6,6,0.13|
6,7,4.7|
7,0,5.4|
7,1,6.7|
7,2,7.6|
7,3,8.7|
7,4,0.052|
7,5,7|
7,6,1.4|
7,7,0.14|
];
constraint_x6_y6=[
0,0,3.6|
0,1,1.3|
0,2,4.3|
0,3,9.9|
0,4,2.3|
0,5,7|
0,6,6.3|
0,7,2.9|
1,0,2.6|
1,1,6.6|
1,2,4.4|
1,3,2.6|
1,4,4.2|
1,5,6.9|
1,6,3.2|
1,7,8|
2,0,9.9|
2,1,0.39|
2,2,5.6|
2,3,1.8|
2,4,4.1|
2,5,8.5|
2,6,0.25|
2,7,6.1|
3,0,3.4|
3,1,1.3|
3,2,3.1|
3,3,7.8|
3,4,4.6|
3,5,5.4|
3,6,8.2|
3,7,2.1|
4,0,3.5|
4,1,2.8|
4,2,8.7|
4,3,0.12|
4,4,9.4|
4,5,0.16|
4,6,2.4|
4,7,6.7|
5,0,7.9|
5,1,0.023|
5,2,5.4|
5,3,2.5|
5,4,9.5|
5,5,3.1|
5,6,6.4|
5,7,1.3|
6,0,4.5|
6,1,1.1|
6,2,4.4|
6,3,6.6|
6,4,6.3|
6,5,6.9|
6,6,6.3|
6,7,0.031|
7,0,9.7|
7,1,5.8|
7,2,9.9|
7,3,1.7|
7,4,3.7|
7,5,2.7|
7,6,7.1|
7,7,3.2|
];
constraint_x7_y7=[
0,0,5.2|
0,1,7.3|
0,2,1.1|
0,3,4.3|
0,4,6.2|
0,5,8.3|
0,6,6|
0,7,7.1|
1,0,3.5|
1,1,4.1|
1,2,1.8|
1,3,1.8|
1,4,9.3|
1,5,3.6|
1,6,7.4|
1,7,2.8|
2,0,9|
2,1,3.8|
2,2,5.4|
2,3,7.1|
2,4,1.6|
2,5,5.1|
2,6,9.5|
2,7,9.9|
3,0,6.7|
3,1,6.8|
3,2,2.5|
3,3,3|
3,4,0.41|
3,5,2.2|
3,6,4.4|
3,7,4|
4,0,6.5|
4,1,8.2|
4,2,5|
4,3,0.78|
4,4,6|
4,5,2.3|
4,6,3.5|
4,7,3.4|
5,0,4.9|
5,1,1.1|
5,2,8.6|
5,3,4.8|
5,4,4.9|
5,5,8.2|
5,6,1.4|
5,7,9.5|
6,0,5.5|
6,1,7.6|
6,2,5|
6,3,1.7|
6,4,8.9|
6,5,1.8|
6,6,3.6|
6,7,3.5|
7,0,7.5|
7,1,5.7|
7,2,5.6|
7,3,0.18|
7,4,8.8|
7,5,0.23|
7,6,8.1|
7,7,2.2|
];
constraint_x8_y8=[
0,0,9.5|
0,1,9.7|
0,2,7.4|
0,3,4.6|
0,4,1.6|
0,5,7.2|
0,6,8.8|
0,7,8.9|
1,0,3|
1,1,9.4|
1,2,3.3|
1,3,1.4|
1,4,7|
1,5,7.7|
1,6,2.3|
1,7,0.018|
2,0,3.4|
2,1,6.8|
2,2,7.6|
2,3,3.5|
2,4,8.2|
2,5,1|
2,6,2.7|
2,7,8.2|
3,0,5.5|
3,1,1.8|
3,2,1.9|
3,3,9.8|
3,4,5.9|
3,5,6.3|
3,6,4.7|
3,7,0.93|
4,0,7.4|
4,1,5.9|
4,2,1.3|
4,3,4.2|
4,4,1.6|
4,5,6.9|
4,6,1.6|
4,7,1.5|
5,0,4.2|
5,1,8.9|
5,2,2.2|
5,3,4.6|
5,4,4.2|
5,5,7|
5,6,1.5|
5,7,3.5|
6,0,2.8|
6,1,4.8|
6,2,10|
6,3,3.8|
6,4,8.6|
6,5,4|
6,6,4.5|
6,7,1.7|
7,0,5|
7,1,9.8|
7,2,7.1|
7,3,9.1|
7,4,8.6|
7,5,3.8|
7,6,5.1|
7,7,9.9|
];
initial_distribution_y1=[0.17,0.018,0.12,0.18,0.012,0.12,0.22,0.16];
initial_distribution_y2=[0.054,0.028,0.092,0.099,0.41,0.072,0.2,0.05];
initial_distribution_y3=[0.24,0.03,0.015,0.21,0.12,0.14,0.07,0.18];
initial_distribution_y4=[0.23,0.081,0.016,0.23,0.1,0.14,0.14,0.063];
initial_distribution_y5=[0.14,0.16,0.14,0.057,0.17,0.1,0.042,0.18];
initial_distribution_y6=[0.048,0.16,0.15,0.036,0.072,0.14,0.24,0.15];
initial_distribution_y7=[0.0072,0.11,0.2,0.2,0.028,0.11,0.13,0.21];
initial_distribution_y8=[0.22,0.12,0.038,0.29,0.089,0.22,0.022,0.0031];
transition_y1=[
0.1,0.22,0.075,0.026,0.021,0.26,0.13,0.17|
0.073,0.047,0.013,0.14,0.24,0.11,0.22,0.16|
0.1,0.047,0.25,0.15,0.034,0.058,0.24,0.11|
0.071,0.19,0.2,0.1,0.041,0.17,0.11,0.12|
0.036,0.058,0.17,0.16,0.11,0.17,0.11,0.19|
0.15,0.082,0.07,0.23,0.2,0.048,0.18,0.041|
0.0047,0.12,0.088,0.32,0.12,0.19,0.15,0.023|
0.1,0.22,0.18,0.027,0.1,0.071,0.17,0.12|
];
transition_y2=[
0.067,0.18,0.16,0.07,0.29,0.02,0.19,0.025|
0.16,0.027,0.12,0.14,0.18,0.014,0.21,0.14|
0.2,0.15,0.065,0.13,0.13,0.21,0.087,0.035|
0.17,0.26,0.018,0.13,0.036,0.17,0.17,0.053|
0.16,0.061,0.19,0.19,0.07,0.095,0.13,0.098|
0.065,0.24,0.13,0.084,0.22,0.12,0.021,0.12|
0.1,0.27,0.19,0.022,0.2,0.051,0.073,0.087|
0.1,0.045,0.15,0.2,0.07,0.22,0.19,0.027|
];
transition_y3=[
0.078,0.011,0.04,0.22,0.15,0.15,0.12,0.24|
0.13,0.13,0.11,0.19,0.087,0.098,0.14,0.11|
0.11,0.1,0.18,0.18,0.14,0.082,0.12,0.082|
0.16,0.18,0.16,0.08,0.14,0.03,0.095,0.16|
0.17,0.013,0.1,0.14,0.19,0.16,0.18,0.041|
0.012,0.2,0.11,0.19,0.12,0.0031,0.18,0.18|
0.061,0.2,0.21,0.028,0.15,0.086,0.14,0.13|
0.13,0.28,0.064,0.038,0.02,0.24,0.031,0.19|
];
transition_y4=[
0.13,0.017,0.17,0.14,0.13,0.16,0.07,0.18|
0.1,0.0074,0.2,0.045,0.17,0.065,0.19,0.22|
0.078,0.2,0.079,0.15,0.16,0.012,0.16,0.16|
0.21,0.16,0.14,0.032,0.049,0.069,0.16,0.18|
0.084,0.018,0.072,0.28,0.01,0.27,0.12,0.14|
0.18,0.16,0.17,0.12,0.12,0.12,0.061,0.075|
0.054,0.26,0.085,0.24,0.082,0.044,0.1,0.13|
0.048,0.052,0.34,0.094,0.12,0.066,0.13,0.15|
];
transition_y5=[
0.1,0.16,0.079,0.08,0.11,0.16,0.11,0.2|
0.14,0.0075,0.36,0.087,0.03,0.042,0.11,0.22|
0.033,0.13,0.22,0.031,0.047,0.36,0.18,0.0038|
0.025,0.24,0.2,0.25,0.13,0.11,0.04,0.0054|
0.027,0.23,0.075,0.13,0.23,0.023,0.012,0.27|
0.14,0.19,0.032,0.024,0.2,0.16,0.11,0.13|
0.11,0.17,0.11,0.06,0.14,0.18,0.044,0.18|
0.098,0.11,0.052,0.3,0.21,0.092,0.1,0.037|
];
transition_y6=[
0.059,0.14,0.065,0.24,0.11,0.044,0.16,0.19|
0.11,0.1,0.23,0.015,0.23,0.17,0.034,0.1|
0.22,0.17,0.29,0.093,0.06,0.052,0.045,0.062|
0.084,0.11,0.21,0.17,0.13,0.14,0.11,0.052|
0.0091,0.091,0.045,0.22,0.051,0.18,0.22,0.19|
0.25,0.082,0.21,0.022,0.047,0.19,0.018,0.19|
0.055,0.17,0.31,0.067,0.024,0.1,0.053,0.21|
0.15,0.14,0.023,0.15,0.22,0.1,0.15,0.053|
];
transition_y7=[
0.14,0.13,0.13,0.15,0.19,0.12,0.13,0.014|
0.079,0.13,0.16,0.032,0.16,0.12,0.14,0.18|
0.22,0.023,0.054,0.03,0.22,0.0044,0.17,0.28|
0.2,0.076,0.11,0.17,0.017,0.028,0.22,0.18|
0.054,0.12,0.2,0.086,0.02,0.19,0.13,0.2|
0.089,0.0082,0.11,0.035,0.29,0.2,0.12,0.15|
0.12,0.18,0.15,0.24,0.018,0.14,0.076,0.08|
0.32,0.027,0.025,0.016,0.098,0.15,0.29,0.075|
];
transition_y8=[
0.059,0.17,0.15,0.083,0.15,0.14,0.15,0.1|
0.15,0.04,0.25,0.073,0.2,0.025,0.0043,0.27|
0.013,0.17,0.14,0.052,0.18,0.2,0.17,0.073|
0.21,0.18,0.18,0.099,0.15,0.084,0.0073,0.096|
0.047,0.17,0.064,0.091,0.16,0.064,0.21,0.19|
0.12,0.21,0.21,0.12,0.02,0.11,0.074,0.13|
0.37,0.16,0.16,0.057,0.17,0.013,0.051,0.022|
0.027,0.01,0.2,0.14,0.16,0.17,0.12,0.17|
];
